param n := 2;

param m := 5;

param K := 500;

param a :=
1 	 0.109019
2 	 0.633787
;
 param A :=
[1, *, *]:  1	2	:=
1	0.605926	0.532423	
2	0.393601	-0.315092	

[2, *, *]:  1	2	:=
1	0.691703	0.648020	
2	-0.142462	0.252992	

[3, *, *]:  1	2	:=
1	-0.713154	-0.963335	
2	-0.843226	-0.866550	

[4, *, *]:  1	2	:=
1	-0.082832	-0.944433	
2	-0.773316	0.509723	

[5, *, *]:  1	2	:=
1	-0.210299	-0.095190	
2	0.493877	-0.099827	
;